702 5
10 10 10 10 10 

0 0 0 0 0 0 5 2 54 66 118 170 
0 0 0 0 0 0 4 3 4 5 6 
9 1 1 1 1 3 5 14 10 9 8 7 
6 6 5 3 4 3 5 14 10 9 8 7 
9 3 7 5 7 2 3 10 9 7 
9 6 3 2 3 5 2 10 7 
1 7 2 4 3 2 3 17 13 11 
2 3 6 4 5 8 3 17 13 11 
5 5 3 4 5 4 2 17 11 
7 8 5 7 5 6 3 17 16 15 
7 6 7 5 6 4 1 12 
1 3 4 2 3 2 3 22 16 15 
2 8 8 3 3 7 3 22 16 15 
3 4 5 5 5 3 3 20 18 17 
5 4 2 8 6 5 2 20 18 
5 5 4 9 5 5 2 20 19 
1 9 5 9 7 5 2 22 19 
4 7 4 1 2 8 1 19 
9 4 7 5 4 6 3 29 27 21 
8 6 4 7 8 8 3 29 27 21 
5 3 4 6 2 4 3 25 24 23 
7 4 5 4 5 7 3 29 24 23 
6 2 4 5 6 6 1 26 
2 5 3 4 7 1 1 26 
7 4 5 3 5 4 1 26 
10 7 5 5 3 9 1 28 
9 4 8 5 6 8 1 28 
3 2 9 5 3 4 1 30 
3 4 4 3 8 7 1 30 
1 2 10 8 7 3 2 33 31 
2 4 5 4 1 1 2 36 32 
8 7 4 4 5 4 2 35 34 
5 6 4 6 10 3 1 34 
9 6 7 5 5 3 2 38 37 
10 7 6 5 7 3 1 37 
6 6 9 6 4 5 1 37 
3 4 2 3 8 9 3 43 40 39 
8 5 4 5 4 7 3 43 40 39 
5 7 5 3 9 6 1 41 
6 6 4 9 6 4 1 41 
1 6 2 4 4 6 1 42 
2 7 10 6 5 3 1 44 
1 3 7 8 2 5 1 44 
4 6 5 3 8 5 1 45 
10 5 4 5 7 5 2 48 46 
2 7 4 5 5 10 1 47 
1 3 3 3 7 7 2 50 49 
3 3 3 6 4 4 1 49 
5 5 5 5 4 6 2 52 51 
1 5 6 8 4 4 2 52 51 
2 5 6 7 6 6 2 53 584 
5 5 6 8 1 5 1 53 
0 0 0 0 0 0 1 702 
0 0 0 0 0 0 2 55 57 
5 0 1 0 0 0 2 58 56 
4 0 5 0 0 0 2 60 59 
3 0 10 0 0 0 2 61 59 
2 0 2 0 0 0 3 63 60 95 
2 0 3 0 0 0 3 64 63 62 
5 0 9 0 0 0 1 61 
10 0 7 0 0 0 1 62 
8 0 5 0 0 0 1 65 
7 0 3 0 0 0 1 65 
9 0 5 0 0 0 1 65 
0 0 0 0 0 0 5 222 264 306 348 360 
0 0 0 0 0 0 4 67 68 69 70 
7 1 4 1 4 1 5 78 74 73 72 71 
10 9 1 8 9 8 4 78 73 72 71 
8 10 6 4 4 4 2 74 71 
8 3 4 3 5 7 2 74 71 
7 3 4 4 4 4 3 80 77 75 
5 6 4 3 2 4 2 80 76 
3 7 4 4 7 6 1 75 
10 4 3 10 4 9 3 84 80 79 
8 6 5 5 5 4 1 76 
4 6 4 3 5 6 3 86 84 79 
2 4 5 7 3 2 4 86 84 83 81 
4 5 5 5 5 5 3 83 81 80 
9 6 8 6 5 4 2 83 81 
9 5 8 6 6 5 2 86 82 
4 3 3 3 4 4 1 82 
8 2 9 7 4 8 3 93 91 85 
4 3 3 6 4 4 3 93 91 85 
9 9 8 4 4 10 3 93 91 85 
10 3 9 6 5 4 3 89 88 87 
6 3 6 8 2 4 2 88 87 
7 4 6 5 3 5 1 90 
1 5 8 5 5 4 1 90 
4 6 6 5 4 2 1 90 
3 4 6 4 5 6 1 92 
5 4 3 5 4 8 1 92 
3 6 6 5 6 5 1 94 
7 3 5 6 4 10 1 94 
6 9 4 4 8 4 3 99 97 95 
9 2 5 5 7 3 1 96 
9 10 4 4 4 6 2 102 98 
6 6 3 5 4 6 1 98 
6 5 2 6 5 1 2 101 100 
7 6 6 7 6 4 1 100 
10 4 3 4 6 3 3 107 104 103 
7 5 4 3 5 4 3 107 104 103 
9 4 4 6 3 4 2 104 103 
6 2 5 6 3 2 1 105 
5 2 5 5 5 10 1 105 
7 2 6 6 5 3 1 106 
2 3 6 3 5 5 1 108 
10 5 4 6 7 7 1 108 
5 3 2 6 4 4 1 109 
9 7 7 6 8 6 2 112 110 
6 6 6 7 2 3 2 113 111 
4 3 3 2 7 7 2 116 114 
9 5 9 8 8 3 2 116 114 
5 7 3 3 5 5 2 116 115 
4 9 4 3 5 9 1 115 
6 8 2 5 10 2 2 117 507 
8 7 10 2 6 6 1 117 
0 0 0 0 0 0 1 702 
0 0 0 0 0 0 5 119 120 121 123 130 
5 1 2 1 1 2 4 134 132 128 124 
1 6 8 3 7 2 4 134 132 127 125 
2 5 7 6 5 6 2 125 122 
4 4 8 7 3 8 3 134 132 126 
6 5 6 3 6 9 2 134 125 
9 5 3 5 3 4 1 125 
10 9 4 10 4 8 1 126 
8 7 4 6 4 6 4 138 137 136 129 
6 5 5 9 8 5 3 138 137 131 
6 3 3 3 4 6 2 137 131 
1 4 5 7 4 6 1 131 
4 7 3 6 2 4 3 145 144 134 
3 3 3 3 6 5 1 133 
9 5 5 6 6 6 1 133 
1 6 5 2 6 4 4 145 144 139 135 
9 2 6 3 3 8 2 139 135 
2 7 5 8 4 2 2 142 140 
3 8 6 5 10 4 2 142 141 
1 5 5 4 4 4 1 139 
2 5 5 8 4 8 1 139 
10 5 10 6 5 2 1 141 
7 3 4 5 7 7 1 141 
2 6 3 4 6 5 1 143 
8 3 3 7 10 6 1 143 
5 4 1 5 3 1 2 151 146 
4 10 3 5 5 3 3 151 149 147 
10 4 6 3 6 6 1 146 
2 5 7 4 3 6 2 149 147 
5 4 6 3 5 2 1 148 
4 3 7 6 3 4 3 155 152 150 
8 6 3 5 4 4 3 157 152 150 
3 7 7 6 10 10 2 160 153 
7 3 2 3 4 7 2 157 152 
6 4 6 3 6 3 1 154 
10 2 4 5 3 2 1 154 
8 6 4 3 6 3 1 156 
8 4 5 8 5 7 1 157 
8 5 6 5 3 3 1 158 
7 2 6 9 6 5 2 158 397 
3 5 6 6 7 7 1 159 
6 6 3 6 8 2 1 161 
7 6 5 1 3 4 1 161 
3 5 4 5 7 8 2 164 162 
2 6 6 6 4 4 2 166 163 
9 3 6 4 6 3 2 168 165 
9 5 10 6 5 4 1 165 
2 6 5 4 3 10 1 167 
3 8 5 5 9 3 1 167 
3 6 4 4 1 6 1 169 
8 6 5 3 3 6 1 169 
0 0 0 0 0 0 1 702 
0 0 0 0 0 0 4 171 172 173 174 
6 1 2 1 1 3 4 182 177 176 175 
8 8 6 4 8 5 4 182 177 176 175 
5 8 3 4 4 7 3 182 177 175 
10 6 5 4 7 3 1 175 
5 5 1 2 7 4 4 180 179 178 298 
10 5 7 3 6 4 3 180 179 178 
8 5 5 7 2 4 2 184 179 
2 2 7 3 1 5 2 184 181 
6 6 4 4 3 1 1 181 
6 6 4 4 4 5 1 181 
2 7 7 7 7 3 3 190 185 183 
6 5 3 5 7 6 2 184 183 
5 5 6 4 6 3 2 187 186 
2 3 2 5 5 4 2 190 188 
1 9 6 4 4 5 1 186 
4 6 5 6 2 4 1 188 
4 8 3 4 5 5 1 188 
3 6 3 8 6 7 3 197 194 189 
6 3 5 3 8 5 3 193 192 191 
1 7 4 2 6 8 3 197 192 191 
8 4 5 5 7 4 1 195 
3 2 6 6 6 2 1 195 
10 2 7 10 6 5 1 195 
2 4 3 8 4 8 1 195 
8 7 7 2 3 3 1 196 
10 6 4 6 5 5 1 198 
6 7 4 4 7 3 1 198 
6 5 6 3 3 6 2 201 199 
6 8 2 4 4 4 2 204 200 
9 4 5 5 4 5 2 203 202 
8 4 2 5 7 5 1 202 
7 6 4 6 5 10 2 206 205 
6 4 4 7 2 2 1 205 
2 2 10 3 5 3 1 205 
1 7 5 6 6 5 3 211 208 207 
7 7 6 6 3 2 3 211 208 207 
1 5 4 5 4 4 1 209 
4 4 4 4 3 8 1 209 
5 5 7 6 7 10 1 210 
7 3 5 4 6 6 1 212 
9 6 3 1 6 7 1 212 
10 5 3 8 4 3 1 213 
9 1 5 8 5 5 2 216 214 
10 5 5 7 7 8 1 215 
9 2 10 9 9 4 2 218 217 
10 5 5 8 3 5 1 217 
7 5 6 3 8 6 2 220 219 
8 6 8 8 5 10 2 220 219 
9 3 10 6 4 5 1 221 
7 5 7 3 3 6 1 221 
0 0 0 0 0 0 1 702 
0 0 0 0 0 0 2 223 226 
1 1 1 0 2 1 2 262 224 
5 7 7 0 5 5 2 228 225 
1 1 4 0 8 3 4 251 235 232 227 
8 3 5 0 5 6 2 232 230 
2 4 3 0 3 8 1 229 
5 3 3 0 6 10 4 251 250 233 231 
7 2 6 0 6 9 2 233 230 
1 2 5 0 3 2 2 250 231 
2 7 4 0 10 6 3 253 247 234 
7 4 3 0 6 2 2 253 233 
4 2 3 0 4 7 4 261 247 239 236 
4 7 10 0 4 7 3 261 239 236 
4 4 9 0 5 5 3 253 247 237 
9 7 7 0 6 4 1 237 
3 4 7 0 8 5 2 258 238 
7 10 5 0 9 6 4 260 259 246 240 
4 8 6 0 4 5 4 258 257 246 241 
8 8 8 0 5 5 2 257 241 
5 7 4 0 8 8 2 249 242 
7 4 3 0 4 4 1 243 
5 8 4 0 7 3 2 256 244 
4 9 4 0 2 4 1 245 
4 5 5 0 2 2 2 255 248 
2 4 5 0 5 6 1 249 
2 4 2 0 6 2 1 248 
4 8 5 0 5 6 1 252 
10 4 4 0 6 5 1 252 
7 4 7 0 7 4 1 253 
2 4 7 0 4 2 1 253 
7 6 7 0 5 9 1 254 
9 4 2 0 3 5 2 255 672 
6 2 7 0 3 3 1 263 
5 4 4 0 2 3 1 263 
6 5 4 0 2 7 1 263 
6 7 7 0 3 7 1 263 
7 8 4 0 7 7 1 263 
10 6 7 0 7 1 1 263 
5 5 3 0 6 10 1 263 
8 6 4 0 5 3 1 263 
8 2 5 0 2 3 1 263 
0 0 0 0 0 0 1 702 
0 0 0 0 0 0 2 265 267 
10 1 1 1 0 2 1 266 
7 2 4 5 0 2 2 269 268 
2 9 3 5 0 4 2 270 268 
10 4 7 4 0 4 4 280 273 272 271 
2 10 5 2 0 5 3 273 272 270 
7 7 5 6 0 3 1 271 
4 4 5 5 0 5 3 277 276 274 
5 3 6 5 0 1 3 284 276 275 
2 7 4 4 0 4 3 284 276 275 
8 6 5 4 0 4 3 284 275 698 
7 3 7 5 0 5 1 278 
4 6 4 1 0 10 1 278 
9 4 6 7 0 4 1 278 
10 6 4 5 0 4 2 285 279 
1 8 5 4 0 4 3 288 283 281 
1 5 9 5 0 9 2 284 282 
9 4 5 7 0 5 1 282 
3 3 5 5 0 3 3 291 289 286 
9 4 6 5 0 4 3 295 291 286 
2 10 5 5 0 9 4 295 294 290 288 
5 6 5 9 0 10 3 295 294 290 
2 3 6 4 0 5 1 287 
5 8 3 7 0 8 2 294 290 
5 1 1 5 0 4 2 292 291 
7 7 7 4 0 5 3 296 295 293 
7 6 8 5 0 7 2 297 292 
4 5 4 6 0 2 2 298 296 
6 4 5 6 0 5 1 293 
6 5 4 5 0 10 2 299 298 
2 4 4 7 0 6 1 296 
3 4 6 5 0 3 2 304 298 
7 4 6 6 0 4 1 297 
3 4 2 4 0 2 3 304 303 300 
7 7 6 7 0 3 2 303 300 
9 3 6 4 0 3 3 304 303 302 
6 5 3 7 0 5 1 301 
6 2 6 3 0 7 1 302 
1 3 8 5 0 7 1 305 
3 9 6 3 0 6 1 305 
8 4 3 8 0 7 1 305 
0 0 0 0 0 0 1 702 
0 0 0 0 0 0 2 307 310 
10 1 1 1 0 2 1 308 
7 4 2 1 0 4 3 340 312 309 
6 9 5 9 0 9 4 332 318 316 311 
1 7 7 3 0 4 2 316 314 
7 4 5 2 0 3 1 313 
2 8 5 5 0 4 4 335 332 317 315 
1 7 4 5 0 3 2 317 314 
9 2 5 8 0 5 2 335 315 
5 4 4 4 0 5 3 338 331 319 
6 8 9 10 0 2 2 338 317 
10 3 7 4 0 5 3 331 323 320 
7 5 3 5 0 6 4 338 331 323 321 
7 6 6 2 0 10 2 323 320 
9 5 4 5 0 5 2 339 321 
9 6 4 5 0 6 1 322 
8 6 9 5 0 6 5 346 345 337 330 324 
2 5 3 5 0 4 4 344 337 330 325 
3 10 10 7 0 6 2 344 325 
8 5 7 7 0 7 2 334 326 
6 2 5 4 0 6 2 327 441 
7 2 2 4 0 1 2 343 328 
4 6 4 3 0 3 1 329 
1 3 6 5 0 4 2 342 333 
1 3 4 7 0 8 2 343 334 
3 4 3 9 0 4 2 343 333 
4 5 6 2 0 9 2 338 336 
8 4 4 5 0 6 1 336 
1 3 10 7 0 6 1 336 
5 8 5 3 0 4 1 338 
5 5 6 5 0 3 1 341 
5 4 5 5 0 6 1 343 
6 8 2 3 0 4 1 342 
9 4 4 10 0 3 1 341 
1 6 3 2 0 4 1 341 
8 7 4 4 0 8 1 347 
5 7 8 4 0 10 1 347 
10 5 5 7 0 3 1 347 
7 4 3 3 0 4 1 347 
2 3 3 8 0 4 1 347 
2 2 8 7 0 4 1 347 
0 0 0 0 0 0 1 702 
0 0 0 0 0 0 4 349 350 354 355 
7 0 1 0 0 0 2 353 351 
7 0 7 0 0 0 2 357 356 
1 0 9 0 0 0 1 352 
9 0 4 0 0 0 1 356 
9 0 9 0 0 0 1 357 
7 0 6 0 0 0 1 357 
8 0 4 0 0 0 1 356 
1 0 4 0 0 0 2 358 576 
2 0 2 0 0 0 1 358 
4 0 4 0 0 0 1 359 
0 0 0 0 0 0 5 402 434 466 478 510 
0 0 0 0 0 0 2 361 363 
1 1 1 0 1 1 1 362 
9 5 7 0 3 4 2 365 364 
10 6 3 0 5 5 2 365 364 
10 2 8 0 5 9 4 376 369 368 367 
8 5 4 0 5 5 3 369 368 366 
1 7 4 0 7 5 1 367 
5 8 8 0 4 6 3 372 371 370 
8 9 8 0 4 7 2 372 370 
10 3 5 0 5 4 2 373 372 
1 7 5 0 6 4 2 377 373 
9 7 5 0 6 4 2 377 373 
3 3 6 0 6 5 2 377 374 
4 4 4 0 4 2 1 374 
3 2 6 0 8 6 1 375 
5 6 8 0 7 7 3 382 379 378 
5 7 3 0 10 3 1 377 
5 7 3 0 5 5 2 382 378 
9 5 4 0 6 8 2 381 380 
6 4 5 0 3 5 3 385 383 381 
6 5 3 0 3 6 3 386 385 383 
2 6 6 0 5 3 3 387 386 384 
6 7 4 0 3 7 2 385 384 
10 3 3 0 4 2 1 384 
5 6 4 0 4 5 2 390 388 
5 5 4 0 5 7 2 389 387 
2 7 10 0 5 5 2 391 390 
1 6 5 0 4 7 2 392 391 
8 5 6 0 3 5 1 389 
4 6 3 0 7 6 2 393 391 
5 6 2 0 5 4 2 394 392 
5 4 3 0 7 4 2 395 394 
1 4 4 0 4 5 2 395 393 
4 2 9 0 5 2 2 398 396 
4 4 5 0 4 3 3 398 396 624 
1 4 5 0 5 5 3 400 398 397 
4 3 3 0 8 5 2 400 397 
4 4 7 0 6 6 1 399 
9 3 7 0 4 5 1 399 
4 6 6 0 4 7 1 401 
7 6 4 0 5 6 1 401 
0 0 0 0 0 0 1 702 
0 0 0 0 0 0 5 403 429 430 431 432 
1 1 0 1 1 0 4 428 427 404 609 
2 5 0 5 3 0 3 426 425 405 
2 5 0 6 4 0 2 424 406 
6 5 0 4 7 0 1 407 
4 5 0 8 7 0 2 423 408 
2 5 0 6 5 0 1 409 
7 6 0 3 2 0 3 422 421 410 
8 6 0 6 2 0 2 420 411 
5 6 0 4 8 0 1 412 
3 4 0 4 3 0 1 413 
8 2 0 3 5 0 3 419 418 414 
5 6 0 7 4 0 1 415 
3 7 0 4 4 0 1 416 
3 6 0 7 7 0 1 417 
4 3 0 7 4 0 1 433 
10 8 0 6 6 0 1 433 
6 5 0 6 4 0 1 433 
1 4 0 6 9 0 1 433 
6 5 0 7 5 0 1 433 
7 7 0 4 3 0 1 433 
2 6 0 6 8 0 1 433 
10 8 0 4 5 0 1 433 
2 3 0 6 5 0 1 433 
9 5 0 6 4 0 1 433 
9 5 0 7 10 0 1 433 
4 5 0 2 5 0 1 433 
6 4 0 4 3 0 1 433 
5 5 0 5 5 0 1 433 
8 5 0 4 6 0 1 433 
1 3 0 2 6 0 1 433 
0 0 0 0 0 0 1 702 
0 0 0 0 0 0 3 435 442 464 
7 1 0 1 1 0 2 463 436 
1 7 0 8 4 0 2 461 437 
10 6 0 3 6 0 1 438 
9 5 0 8 6 0 3 460 458 439 
5 4 0 6 1 0 2 459 440 
6 6 0 4 6 0 3 457 456 441 
8 5 0 2 3 0 1 443 
6 4 0 4 6 0 6 462 458 456 455 454 447 
3 10 0 7 5 0 2 455 444 
10 2 0 5 6 0 1 445 
7 7 0 3 7 0 1 446 
1 9 0 4 6 0 2 454 447 
10 5 0 7 8 0 4 453 452 451 448 
3 4 0 7 8 0 1 449 
7 3 0 5 4 0 1 450 
8 3 0 3 6 0 2 465 504 
3 2 0 6 6 0 1 465 
4 7 0 7 2 0 1 465 
9 7 0 3 6 0 1 465 
10 5 0 2 6 0 1 465 
9 4 0 8 5 0 1 465 
8 6 0 2 5 0 1 465 
4 5 0 7 3 0 1 465 
2 5 0 6 3 0 1 465 
1 8 0 3 2 0 1 465 
10 6 0 8 10 0 1 465 
7 1 0 1 2 0 1 465 
3 2 0 9 6 0 1 465 
8 6 0 4 5 0 1 465 
7 5 0 7 6 0 1 465 
0 0 0 0 0 0 1 702 
0 0 0 0 0 0 2 467 469 
8 0 0 0 0 1 2 476 468 
5 0 0 0 0 5 3 475 472 470 
6 0 0 0 0 2 2 474 470 
1 0 0 0 0 8 1 471 
5 0 0 0 0 6 1 473 
10 0 0 0 0 6 1 474 
3 0 0 0 0 5 1 477 
1 0 0 0 0 4 1 477 
3 0 0 0 0 9 1 477 
7 0 0 0 0 4 1 477 
0 0 0 0 0 0 5 542 564 586 608 620 
0 0 0 0 0 0 3 479 480 508 
10 1 0 1 0 3 2 507 481 
10 7 0 10 0 2 3 507 489 482 
9 7 0 7 0 6 2 489 482 
6 6 0 4 0 4 1 483 
6 3 0 4 0 10 3 506 505 484 
8 4 0 5 0 8 1 485 
1 6 0 4 0 3 2 504 486 
4 5 0 5 0 5 2 503 487 
4 3 0 4 0 3 2 502 488 
10 4 0 3 0 4 1 490 
6 7 0 4 0 9 3 501 493 492 
6 6 0 4 0 4 2 501 491 
9 8 0 5 0 4 1 492 
1 6 0 4 0 3 3 499 496 494 
9 6 0 3 0 6 3 499 496 495 
9 5 0 7 0 6 3 500 497 495 
1 3 0 4 0 3 1 498 
4 5 0 5 0 4 1 497 
3 3 0 3 0 6 1 509 
10 1 0 6 0 5 1 509 
1 1 0 3 0 6 1 509 
7 5 0 3 0 6 1 509 
4 5 0 2 0 4 1 509 
9 4 0 8 0 2 1 509 
3 7 0 10 0 8 1 509 
10 4 0 10 0 3 1 509 
2 5 0 9 0 5 1 509 
1 10 0 3 0 7 1 509 
10 9 0 3 0 6 1 509 
1 4 0 7 0 5 1 509 
0 0 0 0 0 0 1 702 
0 0 0 0 0 0 3 511 525 540 
1 0 1 1 1 0 2 539 512 
8 0 4 6 3 0 2 537 513 
9 0 4 5 10 0 1 514 
2 0 5 4 7 0 3 536 535 515 
6 0 6 6 7 0 2 534 516 
5 0 5 1 2 0 3 533 532 517 
9 0 6 4 4 0 1 518 
1 0 3 4 2 0 2 531 519 
7 0 2 7 3 0 1 520 
9 0 1 6 4 0 1 521 
3 0 6 3 4 0 4 530 529 528 522 
5 0 10 5 8 0 2 527 523 
2 0 5 2 7 0 1 524 
9 0 3 7 4 0 1 526 
4 0 6 4 7 0 1 538 
3 0 4 7 4 0 1 541 
1 0 9 9 2 0 1 541 
9 0 4 6 9 0 1 541 
8 0 4 4 6 0 1 541 
9 0 5 7 4 0 1 541 
7 0 6 4 5 0 1 541 
7 0 4 2 7 0 1 541 
5 0 7 6 3 0 1 541 
10 0 3 6 4 0 1 541 
7 0 7 8 10 0 1 541 
5 0 4 4 3 0 1 541 
10 0 8 4 6 0 1 541 
2 0 7 4 5 0 1 541 
9 0 7 9 3 0 1 541 
3 0 4 5 6 0 1 541 
0 0 0 0 0 0 1 702 
0 0 0 0 0 0 6 543 558 559 560 561 562 
2 5 1 0 0 0 3 557 556 544 
7 3 6 0 0 0 2 555 545 
5 4 3 0 0 0 2 554 546 
8 4 2 0 0 0 1 547 
5 5 5 0 0 0 2 553 548 
5 4 7 0 0 0 1 549 
1 3 6 0 0 0 1 550 
4 3 4 0 0 0 1 551 
5 6 6 0 0 0 1 552 
5 10 9 0 0 0 1 563 
8 9 4 0 0 0 1 563 
4 5 5 0 0 0 1 563 
5 8 4 0 0 0 1 563 
4 6 4 0 0 0 1 563 
1 2 6 0 0 0 1 563 
5 3 4 0 0 0 1 563 
2 7 5 0 0 0 1 563 
8 6 5 0 0 0 1 563 
2 3 7 0 0 0 1 563 
4 4 7 0 0 0 1 563 
0 0 0 0 0 0 1 702 
0 0 0 0 0 0 1 565 
6 0 2 0 0 1 2 568 566 
7 0 4 0 0 3 1 567 
8 0 3 0 0 4 1 569 
4 0 4 0 0 4 1 569 
5 0 6 0 0 7 2 572 570 
2 0 10 0 0 6 5 584 583 577 576 571 
7 0 2 0 0 3 3 582 581 573 
8 0 6 0 0 2 5 582 581 580 579 578 
7 0 2 0 0 4 2 579 574 
5 0 2 0 0 4 2 580 575 
10 0 4 0 0 2 1 578 
2 0 6 0 0 2 1 579 
10 0 7 0 0 3 1 578 
3 0 6 0 0 5 1 585 
2 0 3 0 0 9 1 585 
2 0 6 0 0 10 1 585 
10 0 9 0 0 8 1 585 
8 0 6 0 0 10 1 585 
2 0 8 0 0 6 1 585 
10 0 4 0 0 7 1 585 
0 0 0 0 0 0 1 702 
0 0 0 0 0 0 1 587 
2 0 1 0 0 1 1 588 
4 0 3 0 0 4 3 593 590 589 
9 0 8 0 0 5 1 591 
8 0 6 0 0 6 1 591 
8 0 10 0 0 4 2 601 592 
10 0 6 0 0 5 5 606 598 596 595 594 
2 0 6 0 0 6 3 606 596 595 
7 0 6 0 0 5 1 597 
6 0 5 0 0 4 2 605 599 
3 0 9 0 0 5 2 605 599 
10 0 3 0 0 5 2 605 599 
8 0 1 0 0 4 2 605 599 
4 0 2 0 0 7 2 604 600 
3 0 2 0 0 6 2 603 602 
5 0 5 0 0 6 1 606 
2 0 4 0 0 7 1 607 
1 0 7 0 0 6 1 607 
3 0 6 0 0 5 1 607 
1 0 4 0 0 4 1 607 
3 0 6 0 0 5 1 607 
0 0 0 0 0 0 1 702 
0 0 0 0 0 0 5 609 611 614 615 618 
3 1 0 0 0 0 2 617 610 
1 3 0 0 0 0 1 612 
8 7 0 0 0 0 2 617 616 
6 5 0 0 0 0 1 613 
4 4 0 0 0 0 1 616 
5 3 0 0 0 0 1 617 
2 3 0 0 0 0 1 616 
2 5 0 0 0 0 1 619 
8 10 0 0 0 0 1 619 
4 9 0 0 0 0 1 619 
0 0 0 0 0 0 5 642 654 666 678 690 
0 0 0 0 0 0 1 621 
4 0 1 1 0 0 2 624 622 
8 0 6 5 0 0 1 623 
3 0 6 6 0 0 1 625 
10 0 4 8 0 0 1 625 
6 0 8 5 0 0 2 627 626 
9 0 6 9 0 0 3 636 632 628 
10 0 5 1 0 0 4 633 632 631 630 
3 0 5 5 0 0 3 633 630 629 
2 0 6 6 0 0 2 640 631 
9 0 5 2 0 0 4 640 639 638 637 
9 0 2 5 0 0 3 639 638 634 
9 0 4 7 0 0 2 639 637 
9 0 4 5 0 0 1 635 
1 0 5 4 0 0 1 637 
6 0 3 4 0 0 1 637 
10 0 7 4 0 0 1 638 
3 0 6 9 0 0 1 641 
8 0 6 5 0 0 1 641 
2 0 9 7 0 0 1 641 
3 0 2 2 0 0 1 641 
0 0 0 0 0 0 1 702 
0 0 0 0 0 0 3 643 645 646 
4 0 0 1 0 0 1 644 
3 0 0 8 0 0 3 651 648 647 
10 0 0 5 0 0 3 651 648 647 
1 0 0 6 0 0 3 651 649 647 
4 0 0 6 0 0 1 650 
7 0 0 7 0 0 1 649 
9 0 0 6 0 0 1 652 
3 0 0 2 0 0 1 652 
10 0 0 3 0 0 1 652 
9 0 0 6 0 0 1 653 
0 0 0 0 0 0 1 702 
0 0 0 0 0 0 4 655 657 663 664 
3 0 1 0 0 0 2 661 656 
3 0 6 0 0 0 2 662 658 
10 0 2 0 0 0 2 661 659 
8 0 4 0 0 0 1 659 
3 0 5 0 0 0 1 660 
5 0 10 0 0 0 1 665 
8 0 6 0 0 0 1 665 
6 0 6 0 0 0 1 665 
1 0 6 0 0 0 1 665 
6 0 4 0 0 0 1 665 
0 0 0 0 0 0 1 702 
0 0 0 0 0 0 3 667 668 669 
4 0 0 1 0 0 2 671 670 
8 0 0 3 0 0 2 671 670 
10 0 0 6 0 0 1 670 
9 0 0 4 0 0 2 674 672 
8 0 0 4 0 0 2 676 675 
3 0 0 6 0 0 1 673 
5 0 0 7 0 0 1 675 
9 0 0 7 0 0 1 676 
6 0 0 7 0 0 1 677 
9 0 0 5 0 0 1 677 
0 0 0 0 0 0 1 702 
0 0 0 0 0 0 2 679 680 
5 0 1 0 0 0 2 684 681 
6 0 6 0 0 0 1 681 
9 0 4 0 0 0 2 683 682 
10 0 7 0 0 0 3 688 686 685 
3 0 3 0 0 0 2 688 685 
5 0 4 0 0 0 2 688 687 
6 0 4 0 0 0 1 687 
4 0 8 0 0 0 1 687 
8 0 7 0 0 0 1 689 
7 0 6 0 0 0 1 689 
0 0 0 0 0 0 1 702 
0 0 0 0 0 0 1 691 
7 0 0 2 0 0 3 695 693 692 
3 0 0 3 0 0 3 700 697 696 
4 0 0 2 0 0 1 694 
5 0 0 8 0 0 2 700 696 
3 0 0 10 0 0 2 700 696 
5 0 0 2 0 0 2 699 698 
9 0 0 5 0 0 2 699 698 
6 0 0 2 0 0 1 701 
3 0 0 8 0 0 1 701 
4 0 0 8 0 0 1 701 
0 0 0 0 0 0 1 702 
0 0 0 0 0 0 0 
